10
-1 196 186 148 189 351 252 260 93 521 
196 -1 380 55 239 544 399 453 230 684 
186 380 -1 328 264 206 254 134 173 437 
148 55 328 -1 190 500 372 409 174 654 
189 239 264 190 -1 469 434 389 109 682 
351 544 206 500 469 -1 231 91 371 256 
252 399 254 372 434 231 -1 173 326 286 
260 453 134 409 389 91 173 -1 287 303 
93 230 173 174 109 371 326 287 -1 575 
521 684 437 654 682 256 286 303 575 -1 
